c File: instances/10_0.15_2.col
c
c Description: Random graph of size 10 vertices and P(0.15000000000000002) of edges between any two vertices.
p col 10 45
e 1 2
e 1 3
e 1 6
e 1 7
e 2 6
e 2 9
e 2 10
e 3 4
e 4 7
e 4 8
e 4 10
e 6 7
e 7 10
e 8 10
e 9 10